coords = array2d(1..45, 1..2, [26, 162, 565, 247, 222, 974, 45, 652, 428, 179,
    179, 740, 886, 480, 921, 514, 915, 575, 397, 776, 556, 304, 671,
    191, 552, 339, 585, 624, 312, 549, 550, 405, 870, 596, 558, 642,
    76, 159, 677, 173, 712, 295, 319, 132, 406, 227, 740, 455, 14, 93,
    781, 353, 966, 798, 536, 195, 929, 441, 597, 516, 885, 807, 723,
    960, 744, 754, 624, 978, 211, 719, 98, 301, 207, 670, 129, 96,
    724, 616, 633, 463, 192, 839, 189, 414, 756, 763, 923, 519, 182,
    697]);

n = 45;

